0 28 32
1 20 36
2 31 34
3 31 34
4 29 35
5 29 30
6 26 30
7 26 29
8 24 25
9 18 27
10 23 25
11 17 24
12 20 21
13 13 18
14 9 18
15 17 17
16 11 13
17 13 13
18 6 13
19 8 13
20 10 10
21 7 8
22 9 10
23 9 9
24 9 10
25 5 10
26 7 8
27 5 7
28 5 5
29 4 5
30 1 3
31 2 2
32 2 2
33 4 4
34 2 2
35 1 3
36 2 2
37 1 1

